
Gurobi 9.0.1 (linux64) logging started Thu Apr 30 18:39:24 2020

Gurobi Optimizer version 9.0.1 build v9.0.1rc0 (linux64)
Optimize a model with 12677 rows, 12060 columns and 201690 nonzeros
Model fingerprint: 0xfd7124a7
Variable types: 0 continuous, 12060 integer (12032 binary)
Coefficient statistics:
  Matrix range     [1e+00, 1e+01]
  Objective range  [3e+00, 1e+02]
  Bounds range     [1e+00, 1e+00]
  RHS range        [1e+00, 1e+00]

User MIP start produced solution with objective 909 (0.29s)
Loaded user MIP start with objective 909

Presolve removed 3752 rows and 3270 columns
Presolve time: 3.23s
Presolved: 8925 rows, 8790 columns, 167925 nonzeros
Variable types: 0 continuous, 8790 integer (8764 binary)

Root simplex log...

Iteration    Objective       Primal Inf.    Dual Inf.      Time
    2619    5.3914297e+02   1.229406e+03   0.000000e+00      5s
    5619    5.5227912e+02   5.967805e+03   0.000000e+00     10s
    7479    5.5817588e+02   1.263547e+03   0.000000e+00     15s
    9371    5.5939126e+02   3.688380e+02   0.000000e+00     20s
   10996    5.6047636e+02   1.470051e+03   0.000000e+00     25s
   12841    5.6180372e+02   1.700141e+01   0.000000e+00     30s
   13112    5.6184656e+02   0.000000e+00   0.000000e+00     31s

Root relaxation: objective 5.618466e+02, 13112 iterations, 27.48 seconds

    Nodes    |    Current Node    |     Objective Bounds      |     Work
 Expl Unexpl |  Obj  Depth IntInf | Incumbent    BestBd   Gap | It/Node Time

     0     0  561.84656    0 2293  909.00000  561.84656  38.2%     -   33s
     0     0  583.39354    0 2310  909.00000  583.39354  35.8%     -   77s
     0     0  583.66974    0 2305  909.00000  583.66974  35.8%     -   83s
     0     0  583.67111    0 2302  909.00000  583.67111  35.8%     -   84s
     0     0  593.54848    0 2389  909.00000  593.54848  34.7%     -  129s
     0     0  593.85216    0 2383  909.00000  593.85216  34.7%     -  138s
     0     0  593.90430    0 2373  909.00000  593.90430  34.7%     -  140s
     0     0  593.91227    0 2370  909.00000  593.91227  34.7%     -  141s
     0     0  593.91277    0 2372  909.00000  593.91277  34.7%     -  141s
     0     0  603.47323    0 2452  909.00000  603.47323  33.6%     -  202s
     0     0  603.93124    0 2428  909.00000  603.93124  33.6%     -  215s
     0     0  604.01753    0 2431  909.00000  604.01753  33.6%     -  220s
     0     0  604.02712    0 2436  909.00000  604.02712  33.6%     -  221s
     0     0  611.49376    0 2449  909.00000  611.49376  32.7%     -  287s
     0     0  612.04364    0 2450  909.00000  612.04364  32.7%     -  303s
     0     0  612.10243    0 2451  909.00000  612.10243  32.7%     -  307s
     0     0  612.10735    0 2446  909.00000  612.10735  32.7%     -  308s
     0     0  612.88447    0 2471  909.00000  612.88447  32.6%     -  328s
     0     0  612.98787    0 2463  909.00000  612.98787  32.6%     -  335s
     0     0  613.01205    0 2458  909.00000  613.01205  32.6%     -  337s
     0     0  613.02061    0 2463  909.00000  613.02061  32.6%     -  339s
     0     0  614.07861    0 2471  909.00000  614.07861  32.4%     -  359s
     0     0  614.18053    0 2468  909.00000  614.18053  32.4%     -  365s
     0     0  614.19475    0 2466  909.00000  614.19475  32.4%     -  367s
     0     0  614.57429    0 2474  909.00000  614.57429  32.4%     -  381s
     0     0  614.67103    0 2460  909.00000  614.67103  32.4%     -  388s
     0     0  614.69535    0 2469  909.00000  614.69535  32.4%     -  390s
     0     0  614.70026    0 2481  909.00000  614.70026  32.4%     -  392s
     0     0  615.09864    0 2466  909.00000  615.09864  32.3%     -  405s
     0     0  615.15849    0 2477  909.00000  615.15849  32.3%     -  410s
     0     0  615.17678    0 2501  909.00000  615.17678  32.3%     -  413s
     0     0  615.28836    0 2485  909.00000  615.28836  32.3%     -  421s
     0     0  615.42301    0 2495  909.00000  615.42301  32.3%     -  427s
     0     0  615.43751    0 2500  909.00000  615.43751  32.3%     -  429s
     0     0  615.79253    0 2472  909.00000  615.79253  32.3%     -  440s
     0     0  615.86040    0 2476  909.00000  615.86040  32.2%     -  446s
     0     0  615.88799    0 2487  909.00000  615.88799  32.2%     -  449s
     0     0  615.89177    0 2488  909.00000  615.89177  32.2%     -  450s
     0     0  616.23571    0 2508  909.00000  616.23571  32.2%     -  463s
     0     0  616.27053    0 2496  909.00000  616.27053  32.2%     -  470s
     0     0  616.28228    0 2491  909.00000  616.28228  32.2%     -  473s
     0     0  616.53099    0 2501  909.00000  616.53099  32.2%     -  483s
     0     0  616.57288    0 2518  909.00000  616.57288  32.2%     -  488s
     0     0  616.58019    0 2519  909.00000  616.58019  32.2%     -  490s
     0     0  617.24289    0 2482  909.00000  617.24289  32.1%     -  508s
     0     0  617.40259    0 2489  909.00000  617.40259  32.1%     -  520s
     0     0  617.42383    0 2486  909.00000  617.42383  32.1%     -  523s
     0     0  617.91372    0 2508  909.00000  617.91372  32.0%     -  543s
     0     0  618.01980    0 2511  909.00000  618.01980  32.0%     -  557s
     0     0  618.03476    0 2509  909.00000  618.03476  32.0%     -  559s
     0     0  618.19014    0 2514  909.00000  618.19014  32.0%     -  569s
     0     0  618.22511    0 2508  909.00000  618.22511  32.0%     -  578s
     0     0  618.23599    0 2511  909.00000  618.23599  32.0%     -  580s
     0     0  618.44045    0 2497  909.00000  618.44045  32.0%     -  591s
     0     0  618.44045    0 2495  909.00000  618.44045  32.0%     -  601s
     0     2  618.44366    0 2495  909.00000  618.44366  32.0%     -  684s
     1     3  622.97633    1 2280  909.00000  618.44366  32.0% 10696  741s
     2     4  620.91833    1 2454  909.00000  620.91833  31.7%  8076  772s
     3     5  622.11152    2 2435  909.00000  620.92512  31.7%  6540  790s
     4     6  657.34670    3 2279  909.00000  620.92512  31.7% 13854  962s
     5     7  622.25220    3 2425  909.00000  620.92512  31.7% 11262  966s
     6     8  653.31313    4 2219  909.00000  620.92512  31.7% 16081 1150s
     7     9  622.58465    4 2415  909.00000  620.92512  31.7% 14005 1157s
     8    10  671.43857    5 2199  909.00000  620.92512  31.7% 18918 1393s
     9    11  622.81843    5 2412  909.00000  620.92512  31.7% 16978 1400s
    10    12  658.65406    6 2233  909.00000  620.92512  31.7% 17419 1487s
    11    13  623.05794    6 2400  909.00000  620.92512  31.7% 16053 1497s
    12    14  642.50492    7 2283  909.00000  620.92512  31.7% 16379 1578s
    13    15  623.33458    7 2402  909.00000  620.92512  31.7% 15324 1587s
    14    16  641.65676    8 2192  909.00000  620.92512  31.7% 15636 1666s
    15    17  623.82091    8 2394  909.00000  620.92512  31.7% 14793 1678s
    16    18  649.60620    9 2205  909.00000  620.92512  31.7% 15156 1838s
    17    19  624.19138    9 2390  909.00000  620.92512  31.7% 14421 1848s
    18    20  657.52428   10 2148  909.00000  620.92512  31.7% 14794 1936s
    19    21  624.77195   10 2406  909.00000  620.92512  31.7% 14125 1947s
    20    22  641.15642   11 2202  909.00000  620.92512  31.7% 14936 2087s
    21    23  625.19610   11 2410  909.00000  620.92512  31.7% 14371 2100s
    22    24  660.29843   12 2233  909.00000  620.92512  31.7% 14822 2199s
    23    25  625.54630   12 2388  909.00000  620.92512  31.7% 14252 2208s
    24    26  665.33073   13 2159  909.00000  620.92512  31.7% 15017 2372s
    25    27  625.86312   13 2372  909.00000  620.92512  31.7% 14546 2385s
    26    28  648.26638   14 2164  909.00000  620.92512  31.7% 14748 2468s
    27    29  626.20991   14 2397  909.00000  620.92512  31.7% 14257 2481s
    28    30  649.77603   15 2167  909.00000  620.92512  31.7% 15078 2661s
    29    31  627.57826   15 2370  909.00000  620.92512  31.7% 14765 2687s
    30    32  661.77204   16 2239  909.00000  620.92512  31.7% 14958 2771s
    31    33  628.50570   16 2380  909.00000  620.92512  31.7% 14580 2788s
    32    34  670.13305   17 2208  909.00000  620.92512  31.7% 15869 3064s
    33    35  628.76382   17 2361  909.00000  620.92512  31.7% 15445 3072s
    34    36  667.57275   18 2228  909.00000  620.92512  31.7% 15584 3156s
    35    37  629.22694   18 2353  909.00000  620.92512  31.7% 15237 3171s
    36    38  659.29687   19 2213  909.00000  620.92512  31.7% 15374 3254s
    37    39  629.57385   19 2338  909.00000  620.92512  31.7% 14997 3262s
    38    40  671.29215   20 2186  909.00000  620.92512  31.7% 15608 3441s
    39    41  629.91816   20 2345  909.00000  620.92512  31.7% 15274 3452s
    40    42  670.76887   21 2227  909.00000  620.92512  31.7% 15510 3600s

Cutting planes:
  MIR: 41
  StrongCG: 4
  Zero half: 41
  Mod-K: 3
  RLT: 1373

Explored 41 nodes (726927 simplex iterations) in 3600.04 seconds
Thread count was 1 (of 40 available processors)

Solution count 1: 909 

Time limit reached
Best objective 9.090000000000e+02, best bound 6.210000000000e+02, gap 31.6832%

User-callback calls 36383, time in user-callback 0.08 sec
